(declare-datatype Nat ((zero) (succ (p Nat))))
(declare-datatype list ((nil) (cons (head Nat) (tail list))))
(define-fun-rec
  plus
  ((x Nat) (y Nat)) Nat
  (match x
    ((zero y)
     ((succ z) (succ (plus z y))))))
(define-fun-rec
  leq
  ((x Nat) (y Nat)) Bool
  (match x
    ((zero true)
     ((succ z)
      (match y
        ((zero false)
         ((succ x2) (leq z x2))))))))
(define-fun-rec
  insert2
  ((x Nat) (y list)) list
  (match y
    ((nil (cons x nil))
     ((cons z xs)
      (ite (leq x z) (cons x (cons z xs)) (cons z (insert2 x xs)))))))
(define-fun-rec
  isort
  ((x list)) list
  (match x
    ((nil nil)
     ((cons y xs) (insert2 y (isort xs))))))
(define-fun-rec
  count
  ((x Nat) (y list)) Nat
  (match y
    ((nil zero)
     ((cons z ys)
      (ite (= x z) (plus (succ zero) (count x ys)) (count x ys))))))
(assert
  (forall ((x Nat) (y Nat) (z Nat))
    (= (plus x (plus y z)) (plus (plus x y) z))))
(assert (forall ((x Nat) (y Nat)) (= (plus x y) (plus y x))))
(assert (forall ((x Nat)) (= (plus x zero) x)))
(assert (forall ((x Nat)) (= (plus zero x) x)))
(assert
  (not
    (forall ((x Nat) (xs list))
      (= (count x (isort xs)) (count x xs)))))
(check-sat)
